c SAT problem
p wcnf 96 430
1 -60 75 0
1 -60 3120 0
1 75 76 0
1 -75 3150 0
1 75 -3120 0
1 -75 -3135 0
1 90 -3120 0
1 90 3090 0
1 -90 -3165 0
1 -105 -3075 0
1 105 106 0
1 105 -3150 0
1 105 -3120 0
1 -105 3090 0
1 105 -3060 0
1 -3120 181 0
1 -3120 -120 0
1 -3120 -3135 0
1 -3135 -3136 0
1 -3135 -135 0
1 -3135 105 0
1 -3135 75 0
1 -3135 -181 0
1 3135 150 0
1 -3135 -120 0
1 3135 -90 0
1 -3150 -196 0
1 -3150 105 0
1 3150 -75 0
1 3150 -3151 0
1 3150 151 0
1 3150 121 0
1 3150 60 0
1 3150 -3165 0
1 3165 -196 0
1 -3165 -166 0
1 3165 -136 0
1 -3165 -105 0
1 3165 -75 0
1 -120 3105 0
1 -120 3120 0
1 -120 -3090 0
1 -120 -3060 0
1 -135 3105 0
1 -135 3120 0
1 -135 3060 0
1 135 120 0
1 -150 165 0
1 150 -3030 0
1 -150 151 0
1 -165 3105 0
1 165 3075 0
1 165 -3045 0
1 -165 3090 0
1 165 150 0
1 165 3030 0
1 -3060 165 0
1 3060 3061 0
1 3060 -255 0
1 -3075 -195 0
1 -3075 240 0
1 -3075 -210 0
1 3075 180 0
1 3075 -150 0
1 -3075 -90 0
1 3090 3105 0
1 -3090 226 0
1 -3090 196 0
1 3090 -135 0
1 -3090 240 0
1 -3090 -181 0
1 -3090 -120 0
1 -3090 -90 0
1 -3090 255 0
1 -3105 135 0
1 -3105 -105 0
1 -3105 -240 0
1 -3105 -3090 0
1 -3105 150 0
1 180 -3075 0
1 -180 -3015 0
1 180 -3030 0
1 -195 -3075 0
1 -195 -196 0
1 -195 3045 0
1 -195 -3060 0
1 210 3075 0
1 -210 -3030 0
1 210 3000 0
1 -225 -226 0
1 225 -3075 0
1 -225 -3060 0
1 225 3000 0
1 -3000 -195 0
1 -3000 300 0
1 3000 -180 0
1 3015 165 0
1 3030 -225 0
1 3030 -300 0
1 3030 -150 0
1 -3030 3031 0
1 -3030 -315 0
1 -3030 -285 0
1 -3030 -255 0
1 -3045 -165 0
1 3045 210 0
1 3045 180 0
1 3045 150 0
1 3045 -255 0
1 -61 -3330 0
1 76 3300 0
1 76 -3315 0
1 -76 -61 0
1 91 106 0
1 91 3345 0
1 91 -90 0
1 -106 -3330 0
1 -106 3315 0
1 -106 -3285 0
1 -3300 -166 0
1 3300 -136 0
1 3300 76 0
1 3300 -151 0
1 -3315 166 0
1 3315 76 0
1 3315 151 0
1 3315 121 0
1 -3315 61 0
1 3330 -106 0
1 3330 91 0
1 3330 -61 0
1 -3345 106 0
1 3345 -91 0
1 -3345 -61 0
1 121 3150 0
1 -121 -3315 0
1 -121 -3255 0
1 121 120 0
1 -136 135 0
1 -136 3240 0
1 -136 3285 0
1 136 -121 0
1 151 -3180 0
1 151 3315 0
1 -151 150 0
1 151 -3255 0
1 151 -3165 0
1 -166 3300 0
1 166 -3240 0
1 166 3150 0
1 -166 -3315 0
1 -166 -3195 0
1 166 -3165 0
1 3240 -226 0
1 -3240 -136 0
1 -3240 -3241 0
1 3240 -241 0
1 3240 -91 0
1 -3255 3240 0
1 -3255 -106 0
1 3255 3256 0
1 3255 121 0
1 -3270 256 0
1 -3270 -166 0
1 3270 3271 0
1 -3270 -136 0
1 -3270 241 0
1 -3270 -121 0
1 3270 -91 0
1 -3285 -256 0
1 -3285 -241 0
1 -3285 3286 0
1 181 3105 0
1 181 -3240 0
1 -181 -3210 0
1 -181 -3150 0
1 -181 3090 0
1 -181 -180 0
1 -181 -3255 0
1 181 3195 0
1 181 3135 0
1 -196 3105 0
1 -196 3180 0
1 196 -3150 0
1 -196 -3120 0
1 196 181 0
1 -211 -3151 0
1 -211 210 0
1 211 3255 0
1 -226 3105 0
1 -226 -3240 0
1 -226 -3180 0
1 226 -3195 0
1 -226 -3166 0
1 3180 226 0
1 3180 166 0
1 3180 240 0
1 3180 -211 0
1 3180 3195 0
1 3180 -285 0
1 -3195 301 0
1 -3195 -181 0
1 -3195 316 0
1 3195 255 0
1 3210 -196 0
1 -3210 -301 0
1 3210 -271 0
1 -3210 -241 0
1 3225 196 0
1 3225 -3210 0
1 3225 151 0
1 3225 -3226 0
1 -3225 -286 0
1 240 -3105 0
1 -240 -3151 0
1 240 -241 0
1 255 -256 0
1 -255 -3105 0
1 -255 -3045 0
1 255 3151 0
1 255 240 0
1 255 -3121 0
1 255 -3030 0
1 -255 3166 0
1 -270 3106 0
1 270 -3076 0
1 -270 -271 0
1 270 -3091 0
1 -270 3061 0
1 -270 3030 0
1 -270 3166 0
1 -285 -3106 0
1 -285 -3076 0
1 -285 -3045 0
1 285 -3180 0
1 -285 270 0
1 285 -3151 0
1 -285 3091 0
1 -285 -3061 0
1 -285 3030 0
1 285 -3166 0
1 -3121 226 0
1 3121 361 0
1 3121 -300 0
1 3121 -270 0
1 3121 -240 0
1 -3121 211 0
1 -3121 255 0
1 -3136 -300 0
1 3136 3121 0
1 -3136 -211 0
1 -3136 -3135 0
1 -3136 345 0
1 -3151 -361 0
1 -3151 270 0
1 -3151 -3150 0
1 -3151 240 0
1 3151 346 0
1 3151 -285 0
1 3166 -285 0
1 -3166 255 0
1 -300 3076 0
1 300 3015 0
1 -300 3091 0
1 -300 3030 0
1 300 3000 0
1 315 -3106 0
1 315 3061 0
1 -315 -3030 0
1 315 3000 0
1 -330 3136 0
1 -330 3106 0
1 330 3016 0
1 -330 331 0
1 345 -3046 0
1 345 3016 0
1 -345 330 0
1 -3061 300 0
1 -3061 3060 0
1 -3061 -315 0
1 3061 285 0
1 3076 -3075 0
1 -3076 390 0
1 3076 -300 0
1 -3076 -405 0
1 3076 3061 0
1 -3076 -315 0
1 -3076 285 0
1 -3091 3106 0
1 -3091 330 0
1 3091 270 0
1 -3091 3090 0
1 -3091 406 0
1 -3091 -376 0
1 3091 345 0
1 3106 -391 0
1 3106 -361 0
1 -3106 -270 0
1 3106 376 0
1 360 -3076 0
1 -360 3016 0
1 360 3061 0
1 375 3031 0
1 -375 -376 0
1 375 -3001 0
1 390 3076 0
1 390 -3046 0
1 -390 -405 0
1 -405 3076 0
1 -405 -3061 0
1 405 3031 0
1 3001 390 0
1 3001 3016 0
1 -3001 375 0
1 3001 345 0
1 -3016 390 0
1 3016 330 0
1 3016 3001 0
1 3031 -390 0
1 3031 -360 0
1 -3031 375 0
1 3046 360 0
1 3046 330 0
1 3046 -3031 0
1 3046 405 0
1 3046 375 0
1 3046 -345 0
1 241 256 0
1 241 -3270 0
1 -241 3240 0
1 241 -3210 0
1 241 -3346 0
1 241 -3255 0
1 -241 3225 0
1 256 3301 0
1 256 3240 0
1 256 -241 0
1 -256 -3316 0
1 -256 255 0
1 -271 -3210 0
1 271 270 0
1 -271 -3316 0
1 271 3256 0
1 286 -3271 0
1 -286 -3210 0
1 286 3346 0
1 286 -285 0
1 3301 -256 0
1 3301 -3300 0
1 -3301 301 0
1 3301 -271 0
1 -3301 346 0
1 3301 -286 0
1 -3316 -346 0
1 3316 316 0
1 -3331 3330 0
1 -3331 -271 0
1 -3331 -3346 0
1 3346 3331 0
1 -3346 -271 0
1 -3346 -241 0
1 -301 3271 0
1 -301 -3241 0
1 -301 -3210 0
1 -301 300 0
1 301 -3316 0
1 -301 -3256 0
1 -301 -3195 0
1 301 316 0
1 -316 -301 0
1 316 3166 0
1 331 3301 0
1 331 -3181 0
1 331 -3151 0
1 331 -3316 0
1 -346 -3301 0
1 -346 -3271 0
1 -346 -331 0
1 -346 -3211 0
1 346 3151 0
1 346 3286 0
1 346 -345 0
1 -346 -3226 0
1 346 3196 0
1 3241 391 0
1 -3241 -331 0
1 3241 376 0
1 3256 331 0
1 -3256 271 0
1 -3256 -3255 0
1 -3256 316 0
1 -3271 -3270 0
1 -3271 331 0
1 -3271 -271 0
1 3271 346 0
1 -3271 316 0
1 -3286 -316 0
1 -361 3136 0
1 361 3151 0
1 -361 -376 0
1 -361 3226 0
1 -361 3196 0
1 -361 3166 0
1 -376 3136 0
1 376 3106 0
1 -376 -361 0
1 376 -3211 0
1 -376 3181 0
1 -376 3121 0
1 376 -3226 0
1 -376 -3196 0
1 376 3166 0
1 -391 -3211 0
1 -391 -3181 0
1 -406 3106 0
1 406 -391 0
1 406 -3211 0
1 406 -3181 0
1 406 -3256 0
1 -3196 3181 0
1 3211 391 0
1 3211 361 0
1 -3211 3210 0
1 -3211 -331 0
1 -3211 406 0
1 3211 -376 0
1 3226 3211 0
1 3226 -406 0
1 -3226 376 0
1 -3226 -346 0
